p cnf 12 50 
-12 -2 8 0
2 1 3 0
-1 -4 3 0
4 10 2 0
-10 9 4 0
12 5 9 0
-4 -8 1 0
7 -12 -2 0
-7 1 5 0
-9 12 10 0
8 10 -12 0
10 1 6 0
10 -1 7 0
-5 -11 2 0
4 12 1 0
10 3 9 0
-10 2 4 0
9 3 6 0
-5 -8 -11 0
-9 5 -1 0
5 12 -8 0
-9 7 6 0
9 3 10 0
-8 -3 2 0
11 1 -2 0
3 9 6 0
6 -3 7 0
-12 -6 -10 0
-12 2 -6 0
7 4 3 0
-3 4 -12 0
-4 -12 -3 0
1 -10 7 0
9 -12 8 0
10 -8 6 0
2 5 7 0
3 9 7 0
7 -8 -12 0
4 3 -11 0
-2 10 -12 0
4 -2 -10 0
4 7 -2 0
2 -1 4 0
-12 10 11 0
1 -11 2 0
-6 4 10 0
2 3 6 0
-12 6 3 0
-3 6 -4 0
12 -3 8 0
